50
    90    21    83    29    48    45    96    22    46    80     8    12     7    33    64    88    22     1    24    80    45    71    64    59    98    23    76    36    68    23    66    62     7    33    57    29    34     2    89    71    32    71    14    60    50    71     2    12     3    24
     5     1     5     9     8     5     5     3     2     5     2    10     6     1     3     4     1    10     9     4     6     6     5     8    10     1     2     7     4     3     6     5     6    10     7     8     3     3     9     5     6     3     1     4     1     8     8     9     6     3
     0   307   410     0   297   453     0   374     0     0   154   104     0    53     0     0   369     6   550     0     0     0   425   239     0     0     0   419   201   551   401   644     0   300     0     0     0   424     0     0     0   374     0     0   265   191     0   140     0     0
